
Gurobi 6.5.2 (win64) logging started 07/23/16 02:55:51


Gurobi 6.5.2 (win64) logging started 07/23/16 02:55:51

Optimize a model with 8765 rows, 584 columns and 18589 nonzeros
Coefficient statistics:
  Matrix range    [1e+00, 5e+01]
  Objective range [7e+00, 5e+01]
  Bounds range    [1e+00, 1e+00]
  RHS range       [1e+00, 6e+02]
Presolve removed 8661 rows and 150 columns
Presolve time: 0.01s
Presolved: 104 rows, 434 columns, 1593 nonzeros
Variable types: 0 continuous, 434 integer (434 binary)

Root relaxation: objective 5.580000e+02, 106 iterations, 0.00 seconds

    Nodes    |    Current Node    |     Objective Bounds      |     Work
 Expl Unexpl |  Obj  Depth IntInf | Incumbent    BestBd   Gap | It/Node Time

*    0     0               0     558.0000000  558.00000  0.00%     -    0s

Explored 0 nodes (106 simplex iterations) in 0.02 seconds
Thread count was 8 (of 8 available processors)

Optimal solution found (tolerance 1.00e-04)
Best objective 5.580000000000e+02, best bound 5.580000000000e+02, gap 0.0%

Wrote requested result file 'H2\instance16\\Results16SG_Sol3.lp'

